c parsing input formula with 16 variables and 17 clauses
c WARNING: backward mode ignores deletion of (pseudo) unit clause [-1879041422] -16 0
c finished parsing
c UNSAT via unit propagation on the input instance
c 17 of 17 clauses in core                            
c 1 of 17 lemmas in core using 17 resolution steps
c 0 RAT lemmas in core; 0 redundant literals in core lemmas
s VERIFIED
c verification time: 0.065 seconds
